50, 655
37, 37
43, 43
25, 25
30, 30
50, 50
19, 19
48, 48
31, 31
19, 19
10, 10
18, 18
11, 11
33, 33
37, 37
23, 23
48, 48
7, 7
6, 6
44, 44
10, 10
50, 50
28, 28
39, 39
2, 2
6, 6
30, 30
41, 41
47, 47
35, 35
24, 24
36, 36
29, 29
25, 25
46, 46
22, 22
20, 20
24, 24
26, 26
23, 23
41, 41
37, 37
47, 47
17, 17
17, 17
14, 14
9, 9
2, 2
9, 9
14, 14
1, 1
